
Gurobi 9.5.0 (win64) logging started Tue Jun 14 14:42:20 2022

Set parameter LogFile to value "../results/logs/log_facebook_combined_17_250_2022_06_14_14_42.log"
Set parameter LazyConstraints to value 1
Gurobi Optimizer version 9.5.0 build v9.5.0rc5 (win64)
Thread count: 6 physical cores, 12 logical processors, using up to 12 threads
Optimize a model with 1003 rows, 8078 columns and 27347 nonzeros
Model fingerprint: 0x8f05abfd
Variable types: 0 continuous, 8078 integer (8078 binary)
Coefficient statistics:
  Matrix range     [1e+00, 2e+01]
  Objective range  [1e+00, 1e+00]
  Bounds range     [1e+00, 1e+00]
  RHS range        [1e+00, 3e+02]
Found heuristic solution: objective 2061.0000000
Presolve removed 0 rows and 5599 columns
Presolve time: 0.02s
Presolved: 1003 rows, 2479 columns, 18747 nonzeros
Variable types: 0 continuous, 2479 integer (2479 binary)
Found heuristic solution: objective 2089.0000000

Root relaxation: objective 2.547778e+03, 890 iterations, 0.02 seconds (0.02 work units)

    Nodes    |    Current Node    |     Objective Bounds      |     Work
 Expl Unexpl |  Obj  Depth IntInf | Incumbent    BestBd   Gap | It/Node Time

     0     0 2547.77825    0  109 2089.00000 2547.77825  22.0%     -    0s
H    0     0                    2481.0000000 2547.77825  2.69%     -    0s
H    0     0                    2507.0000000 2547.77825  1.63%     -    0s
     0     0 2542.64068    0  164 2507.00000 2542.64068  1.42%     -    0s
H    0     0                    2515.0000000 2542.64068  1.10%     -    0s
H    0     0                    2529.0000000 2542.64068  0.54%     -    0s
     0     0 2541.27042    0  168 2529.00000 2541.27042  0.49%     -    0s
     0     0 2541.18156    0  168 2529.00000 2541.18156  0.48%     -    0s
     0     0 2537.47636    0  157 2529.00000 2537.47636  0.34%     -    0s
     0     0 2536.99497    0  148 2529.00000 2536.99497  0.32%     -    0s
     0     0 2536.90963    0  153 2529.00000 2536.90963  0.31%     -    0s
     0     0 2536.89624    0  153 2529.00000 2536.89624  0.31%     -    0s
     0     0 2536.88372    0  147 2529.00000 2536.88372  0.31%     -    0s
     0     0 2536.88267    0  147 2529.00000 2536.88267  0.31%     -    0s
     0     0 2535.75844    0  143 2529.00000 2535.75844  0.27%     -    0s
H    0     0                    2533.0000000 2535.75844  0.11%     -    0s
     0     0 2535.27207    0   89 2533.00000 2535.27207  0.09%     -    0s
     0     0 2535.24419    0   92 2533.00000 2535.24419  0.09%     -    0s
     0     0 2535.22295    0  120 2533.00000 2535.22295  0.09%     -    0s
     0     0 2535.19734    0   83 2533.00000 2535.19734  0.09%     -    0s
     0     0 2535.18469    0   81 2533.00000 2535.18469  0.09%     -    0s
     0     0 2535.18469    0   82 2533.00000 2535.18469  0.09%     -    0s
     0     0 2534.97637    0   61 2533.00000 2534.97637  0.08%     -    0s
     0     0 2534.87585    0   62 2533.00000 2534.87585  0.07%     -    0s
     0     0 2534.80292    0   68 2533.00000 2534.80292  0.07%     -    0s
     0     0 2534.76806    0   65 2533.00000 2534.76806  0.07%     -    0s
     0     0 2534.74068    0   53 2533.00000 2534.74068  0.07%     -    0s
     0     0 2534.73949    0   64 2533.00000 2534.73949  0.07%     -    0s
     0     0 2534.72283    0   32 2533.00000 2534.72283  0.07%     -    1s
     0     0 2534.72283    0   57 2533.00000 2534.72283  0.07%     -    1s
     0     0 2534.72283    0   84 2533.00000 2534.72283  0.07%     -    1s
     0     0 2534.72283    0   59 2533.00000 2534.72283  0.07%     -    1s
     0     0 2534.70190    0   51 2533.00000 2534.70190  0.07%     -    1s
     0     0 2534.46323    0   50 2533.00000 2534.46323  0.06%     -    1s
     0     0 2534.44115    0   50 2533.00000 2534.44115  0.06%     -    1s
     0     0 2534.42312    0   40 2533.00000 2534.42312  0.06%     -    1s
     0     0 2534.38371    0   39 2533.00000 2534.38371  0.05%     -    1s
     0     0 2534.37201    0   44 2533.00000 2534.37201  0.05%     -    1s
     0     0 2534.36853    0   45 2533.00000 2534.36853  0.05%     -    1s
     0     0 2534.36080    0   45 2533.00000 2534.36080  0.05%     -    1s
     0     0 2534.36048    0   46 2533.00000 2534.36048  0.05%     -    1s
     0     0 2534.32656    0   68 2533.00000 2534.32656  0.05%     -    1s
     0     0 2534.27918    0   62 2533.00000 2534.27918  0.05%     -    1s
     0     0 2534.08288    0   20 2533.00000 2534.08288  0.04%     -    1s
     0     0 2534.07604    0   21 2533.00000 2534.07604  0.04%     -    1s
     0     0 2534.02312    0   21 2533.00000 2534.02312  0.04%     -    1s
     0     0 2534.02312    0   16 2533.00000 2534.02312  0.04%     -    1s
     0     0 2534.02312    0   35 2533.00000 2534.02312  0.04%     -    1s
     0     0     cutoff    0      2533.00000 2533.00000  0.00%     -    1s

Cutting planes:
  Gomory: 9
  Cover: 2
  Clique: 3
  MIR: 5
  GUB cover: 6
  RLT: 4

Explored 1 nodes (4289 simplex iterations) in 1.53 seconds (0.43 work units)
Thread count was 12 (of 12 available processors)

Solution count 10: 2533 2533 2533 ... 2061

Optimal solution found (tolerance 0.00e+00)
Best objective 2.533000000000e+03, best bound 2.533000000000e+03, gap 0.0000%

User-callback calls 585, time in user-callback 0.43 sec

Gurobi 9.5.0 (win64) logging started Tue Jun 14 14:42:43 2022

Set parameter LogFile to value "../results/logs/log_facebook_combined_17_250_2022_06_14_14_42.log"
Set parameter LazyConstraints to value 1
Gurobi Optimizer version 9.5.0 build v9.5.0rc5 (win64)
Thread count: 6 physical cores, 12 logical processors, using up to 12 threads
Optimize a model with 1003 rows, 8078 columns and 27347 nonzeros
Model fingerprint: 0x8f05abfd
Variable types: 0 continuous, 8078 integer (8078 binary)
Coefficient statistics:
  Matrix range     [1e+00, 2e+01]
  Objective range  [1e+00, 1e+00]
  Bounds range     [1e+00, 1e+00]
  RHS range        [1e+00, 3e+02]
Found heuristic solution: objective 2061.0000000
Presolve removed 0 rows and 5599 columns
Presolve time: 0.04s
Presolved: 1003 rows, 2479 columns, 18747 nonzeros
Variable types: 0 continuous, 2479 integer (2479 binary)
Found heuristic solution: objective 2089.0000000

Root relaxation: objective 2.547778e+03, 890 iterations, 0.02 seconds (0.02 work units)

    Nodes    |    Current Node    |     Objective Bounds      |     Work
 Expl Unexpl |  Obj  Depth IntInf | Incumbent    BestBd   Gap | It/Node Time

     0     0 2547.77825    0  109 2089.00000 2547.77825  22.0%     -    0s
H    0     0                    2481.0000000 2547.77825  2.69%     -    0s
H    0     0                    2507.0000000 2547.77825  1.63%     -    0s
     0     0 2542.64068    0  164 2507.00000 2542.64068  1.42%     -    0s
H    0     0                    2515.0000000 2542.64068  1.10%     -    0s
H    0     0                    2529.0000000 2542.64068  0.54%     -    0s
     0     0 2541.27042    0  168 2529.00000 2541.27042  0.49%     -    0s
     0     0 2541.18156    0  168 2529.00000 2541.18156  0.48%     -    0s
     0     0 2537.47636    0  157 2529.00000 2537.47636  0.34%     -    0s
     0     0 2536.99497    0  148 2529.00000 2536.99497  0.32%     -    0s
     0     0 2536.90963    0  153 2529.00000 2536.90963  0.31%     -    0s
     0     0 2536.89624    0  153 2529.00000 2536.89624  0.31%     -    0s
     0     0 2536.88372    0  147 2529.00000 2536.88372  0.31%     -    0s
     0     0 2536.88267    0  147 2529.00000 2536.88267  0.31%     -    0s
     0     0 2535.75844    0  143 2529.00000 2535.75844  0.27%     -    0s
H    0     0                    2533.0000000 2535.75844  0.11%     -    0s
     0     0 2535.27207    0   89 2533.00000 2535.27207  0.09%     -    0s
     0     0 2535.24419    0   92 2533.00000 2535.24419  0.09%     -    0s
     0     0 2535.22295    0  120 2533.00000 2535.22295  0.09%     -    0s
     0     0 2535.19734    0   83 2533.00000 2535.19734  0.09%     -    0s
     0     0 2535.18469    0   81 2533.00000 2535.18469  0.09%     -    0s
     0     0 2535.18469    0   82 2533.00000 2535.18469  0.09%     -    0s
     0     0 2534.97637    0   61 2533.00000 2534.97637  0.08%     -    0s
     0     0 2534.87585    0   62 2533.00000 2534.87585  0.07%     -    0s
     0     0 2534.80292    0   68 2533.00000 2534.80292  0.07%     -    0s
     0     0 2534.76806    0   65 2533.00000 2534.76806  0.07%     -    0s
     0     0 2534.74068    0   53 2533.00000 2534.74068  0.07%     -    0s
     0     0 2534.73949    0   64 2533.00000 2534.73949  0.07%     -    0s
     0     0 2534.72283    0   32 2533.00000 2534.72283  0.07%     -    0s
     0     0 2534.72283    0   57 2533.00000 2534.72283  0.07%     -    1s
     0     0 2534.72283    0   84 2533.00000 2534.72283  0.07%     -    1s
     0     0 2534.72283    0   59 2533.00000 2534.72283  0.07%     -    1s
     0     0 2534.70190    0   51 2533.00000 2534.70190  0.07%     -    1s
     0     0 2534.46323    0   50 2533.00000 2534.46323  0.06%     -    1s
     0     0 2534.44115    0   50 2533.00000 2534.44115  0.06%     -    1s
     0     0 2534.42312    0   40 2533.00000 2534.42312  0.06%     -    1s
     0     0 2534.38371    0   39 2533.00000 2534.38371  0.05%     -    1s
     0     0 2534.37201    0   44 2533.00000 2534.37201  0.05%     -    1s
     0     0 2534.36853    0   45 2533.00000 2534.36853  0.05%     -    1s
     0     0 2534.36080    0   45 2533.00000 2534.36080  0.05%     -    1s
     0     0 2534.36048    0   46 2533.00000 2534.36048  0.05%     -    1s
     0     0 2534.32656    0   68 2533.00000 2534.32656  0.05%     -    1s
     0     0 2534.27918    0   62 2533.00000 2534.27918  0.05%     -    1s
     0     0 2534.08288    0   20 2533.00000 2534.08288  0.04%     -    1s
     0     0 2534.07604    0   21 2533.00000 2534.07604  0.04%     -    1s
     0     0 2534.02312    0   21 2533.00000 2534.02312  0.04%     -    1s
     0     0 2534.02312    0   16 2533.00000 2534.02312  0.04%     -    1s
     0     0 2534.02312    0   35 2533.00000 2534.02312  0.04%     -    1s
     0     0     cutoff    0      2533.00000 2533.00000  0.00%     -    1s

Cutting planes:
  Gomory: 9
  Cover: 2
  Clique: 3
  MIR: 5
  GUB cover: 6
  RLT: 4

Explored 1 nodes (4289 simplex iterations) in 1.48 seconds (0.43 work units)
Thread count was 12 (of 12 available processors)

Solution count 10: 2533 2533 2533 ... 2061

Optimal solution found (tolerance 0.00e+00)
Best objective 2.533000000000e+03, best bound 2.533000000000e+03, gap 0.0000%

User-callback calls 598, time in user-callback 0.43 sec

Gurobi 9.5.0 (win64) logging started Tue Jun 14 14:42:57 2022

Set parameter LogFile to value "../results/logs/log_facebook_combined_17_250_2022_06_14_14_42.log"
Set parameter LazyConstraints to value 1
Gurobi Optimizer version 9.5.0 build v9.5.0rc5 (win64)
Thread count: 6 physical cores, 12 logical processors, using up to 12 threads
Optimize a model with 1003 rows, 8078 columns and 27347 nonzeros
Model fingerprint: 0x8f05abfd
Variable types: 0 continuous, 8078 integer (8078 binary)
Coefficient statistics:
  Matrix range     [1e+00, 2e+01]
  Objective range  [1e+00, 1e+00]
  Bounds range     [1e+00, 1e+00]
  RHS range        [1e+00, 3e+02]
Found heuristic solution: objective 2061.0000000
Presolve removed 0 rows and 5599 columns
Presolve time: 0.02s
Presolved: 1003 rows, 2479 columns, 18747 nonzeros
Variable types: 0 continuous, 2479 integer (2479 binary)
Found heuristic solution: objective 2089.0000000

Root relaxation: objective 2.547778e+03, 890 iterations, 0.03 seconds (0.02 work units)

    Nodes    |    Current Node    |     Objective Bounds      |     Work
 Expl Unexpl |  Obj  Depth IntInf | Incumbent    BestBd   Gap | It/Node Time

     0     0 2547.77825    0  109 2089.00000 2547.77825  22.0%     -    0s
H    0     0                    2481.0000000 2547.77825  2.69%     -    0s
H    0     0                    2507.0000000 2547.77825  1.63%     -    0s
     0     0 2541.59683    0  183 2507.00000 2541.59683  1.38%     -    0s
H    0     0                    2515.0000000 2541.59683  1.06%     -    0s
H    0     0                    2529.0000000 2541.59683  0.50%     -    0s
     0     0 2541.18156    0  172 2529.00000 2541.18156  0.48%     -    1s
     0     0 2537.11043    0  153 2529.00000 2537.11043  0.32%     -    2s
     0     0 2536.90030    0  147 2529.00000 2536.90030  0.31%     -    3s
     0     0 2536.88352    0  145 2529.00000 2536.88352  0.31%     -    3s
     0     0 2535.65992    0  120 2529.00000 2535.65992  0.26%     -    4s
H    0     0                    2533.0000000 2535.65992  0.11%     -    4s
     0     0 2535.20290    0  111 2533.00000 2535.20290  0.09%     -    5s
     0     0 2535.10267    0  101 2533.00000 2535.10267  0.08%     -    6s
     0     0 2535.10077    0  104 2533.00000 2535.10077  0.08%     -    7s
     0     0 2534.96589    0   78 2533.00000 2534.96589  0.08%     -    8s
     0     0 2534.82309    0   41 2533.00000 2534.82309  0.07%     -    8s
     0     0 2534.81171    0   60 2533.00000 2534.81171  0.07%     -    9s
     0     0 2534.61737    0   52 2533.00000 2534.61737  0.06%     -   10s
     0     0 2534.61737    0   63 2533.00000 2534.61737  0.06%     -   11s
     0     0 2534.61737    0   60 2533.00000 2534.61737  0.06%     -   11s
     0     0 2534.61737    0   56 2533.00000 2534.61737  0.06%     -   12s
     0     0 2534.49403    0   40 2533.00000 2534.49403  0.06%     -   13s
     0     0 2534.42762    0   53 2533.00000 2534.42762  0.06%     -   14s
     0     0 2534.34077    0   48 2533.00000 2534.34077  0.05%     -   14s
     0     0 2534.33993    0   48 2533.00000 2534.33993  0.05%     -   15s
     0     0 2534.26413    0   39 2533.00000 2534.26413  0.05%     -   16s
     0     0 2534.25718    0   32 2533.00000 2534.25718  0.05%     -   17s
     0     0 2534.17206    0   19 2533.00000 2534.17206  0.05%     -   17s
     0     0 2534.17206    0   25 2533.00000 2534.17206  0.05%     -   18s
     0     0 2534.17206    0   34 2533.00000 2534.17206  0.05%     -   19s
     0     0     cutoff    0      2533.00000 2533.00000  0.00%     -   20s

Cutting planes:
  Gomory: 14
  Cover: 6
  Clique: 1
  MIR: 16
  StrongCG: 4
  GUB cover: 11
  Zero half: 4
  RLT: 9
  Lazy constraints: 1

Explored 1 nodes (4204 simplex iterations) in 20.15 seconds (0.58 work units)
Thread count was 12 (of 12 available processors)

Solution count 10: 2533 2533 2532 ... 2061

Optimal solution found (tolerance 0.00e+00)
Best objective 2.533000000000e+03, best bound 2.533000000000e+03, gap 0.0000%

User-callback calls 505, time in user-callback 18.99 sec
